molecule {
  {{charge}} {{multiplicity}}
  {{xyz_structure}}
}

set basis {{basis}}
set reference {{reference}}
set print_basis true
set print_MOs true
{{task}}('{{theory}}')
